\ Model BinPackProb
\ LP format - for model browsing. Use MPS format to capture full model detail.
Minimize
  G[0] + G[1] + G[2] + G[3]
Subject To
 Assignment[23]: C[0,23] + C[1,23] + C[2,23] + C[3,23] = 1
 Assignment[43]: C[0,43] + C[1,43] + C[2,43] + C[3,43] = 1
 Assignment[5]: C[0,5] + C[1,5] + C[2,5] + C[3,5] = 1
 Assignment[31]: C[0,31] + C[1,31] + C[2,31] + C[3,31] = 1
 Assignment[16]: C[0,16] + C[1,16] + C[2,16] + C[3,16] = 1
 Assignment[49]: C[0,49] + C[1,49] + C[2,49] + C[3,49] = 1
 Assignment[46]: C[0,46] + C[1,46] + C[2,46] + C[3,46] = 1
 Assignment[30]: C[0,30] + C[1,30] + C[2,30] + C[3,30] = 1
 Assignment[24]: C[0,24] + C[1,24] + C[2,24] + C[3,24] = 1
 Capacity[0]: - 10 G[0] + 0.9 C[0,23] + 5.6 C[0,43] + 9.6 C[0,5]
   + 9.5 C[0,31] + 9.2 C[0,16] + 5.7 C[0,49] + 3.4 C[0,46] + 1.4 C[0,30]
   + 1.9 C[0,24] <= 0
 Capacity[1]: - 10 G[1] + 0.9 C[1,23] + 5.6 C[1,43] + 9.6 C[1,5]
   + 9.5 C[1,31] + 9.2 C[1,16] + 5.7 C[1,49] + 3.4 C[1,46] + 1.4 C[1,30]
   + 1.9 C[1,24] <= 0
 Capacity[2]: - 10 G[2] + 0.9 C[2,23] + 5.6 C[2,43] + 9.6 C[2,5]
   + 9.5 C[2,31] + 9.2 C[2,16] + 5.7 C[2,49] + 3.4 C[2,46] + 1.4 C[2,30]
   + 1.9 C[2,24] <= 0
 Capacity[3]: - 10 G[3] + 0.9 C[3,23] + 5.6 C[3,43] + 9.6 C[3,5]
   + 9.5 C[3,31] + 9.2 C[3,16] + 5.7 C[3,49] + 3.4 C[3,46] + 1.4 C[3,30]
   + 1.9 C[3,24] <= 0
 Sorting[1]: - G[0] + G[1] <= 0
 Sorting[2]: - G[1] + G[2] <= 0
 Sorting[3]: - G[2] + G[3] <= 0
Bounds
Binaries
 G[0] G[1] G[2] G[3] C[0,23] C[0,43] C[0,5] C[0,31] C[0,16] C[0,49] C[0,46]
 C[0,30] C[0,24] C[1,23] C[1,43] C[1,5] C[1,31] C[1,16] C[1,49] C[1,46]
 C[1,30] C[1,24] C[2,23] C[2,43] C[2,5] C[2,31] C[2,16] C[2,49] C[2,46]
 C[2,30] C[2,24] C[3,23] C[3,43] C[3,5] C[3,31] C[3,16] C[3,49] C[3,46]
 C[3,30] C[3,24]
End
